
Gurobi 6.0.4 (win64) logging started 06/23/15 14:11:55

Read LP format model from file C:\MT\repository\VRPTWMS\instances\mip\fuel\N14-C_DV100-C_SV30_F6_7_No_1.lp
Reading time = 0.02 seconds
(null): 1149 rows, 512 columns, 4917 nonzeros
Optimize a model with 1149 rows, 512 columns and 4917 nonzeros
Model has 2744 quadratic constraints
Coefficient statistics:
  Matrix range    [1e+00, 1e+06]
  Objective range [2e+04, 1e+07]
  Bounds range    [1e+00, 1e+06]
  RHS range       [1e+00, 1e+06]
Presolve removed 173 rows and 92 columns
Presolve time: 0.14s
Presolved: 4304 rows, 2082 columns, 24656 nonzeros
Variable types: 1662 continuous, 420 integer (362 binary)
Found heuristic solution: objective 1.360137e+08

Root relaxation: objective 1.117815e+07, 274 iterations, 0.02 seconds

    Nodes    |    Current Node    |     Objective Bounds      |     Work
 Expl Unexpl |  Obj  Depth IntInf | Incumbent    BestBd   Gap | It/Node Time

     0     0 1.1178e+07    0   72 1.3601e+08 1.1178e+07  91.8%     -    0s
H    0     0                    8.446660e+07 1.1178e+07  86.8%     -    0s
     0     0 1.8062e+07    0   52 8.4467e+07 1.8062e+07  78.6%     -    0s
H    0     0                    5.392940e+07 1.8062e+07  66.5%     -    0s
     0     0 2.2879e+07    0   44 5.3929e+07 2.2879e+07  57.6%     -    0s
     0     0 2.2891e+07    0   66 5.3929e+07 2.2891e+07  57.6%     -    0s
     0     0 2.2904e+07    0   71 5.3929e+07 2.2904e+07  57.5%     -    0s
     0     0 2.2931e+07    0   71 5.3929e+07 2.2931e+07  57.5%     -    0s
     0     0 2.2947e+07    0   37 5.3929e+07 2.2947e+07  57.5%     -    0s
     0     0 2.2963e+07    0   50 5.3929e+07 2.2963e+07  57.4%     -    0s
     0     0 2.2964e+07    0   61 5.3929e+07 2.2964e+07  57.4%     -    0s
     0     0 2.2964e+07    0   57 5.3929e+07 2.2964e+07  57.4%     -    0s
     0     2 2.2964e+07    0   54 5.3929e+07 2.2964e+07  57.4%     -    0s
H   78    57                    5.381300e+07 2.3194e+07  56.9%  26.9    0s
*  111    59              16    5.372630e+07 2.3274e+07  56.7%  26.1    0s
*  112    59              16    5.368650e+07 2.3274e+07  56.6%  25.9    0s
H  125    66                    5.354720e+07 2.3274e+07  56.5%  25.0    0s
H  255   105                    5.342820e+07 2.4117e+07  54.9%  23.1    0s
H  528   229                    5.336170e+07 2.6768e+07  49.8%  20.2    1s
H  578   252                    5.331840e+07 2.7866e+07  47.7%  20.1    1s
*  663   290              30    5.331250e+07 2.7866e+07  47.7%  19.2    1s
*  664   290              28    5.321830e+07 2.7866e+07  47.6%  19.3    1s
H  687   308                    5.320500e+07 2.7891e+07  47.6%  19.3    1s
  1177   545 3.4456e+07   21   94 5.3205e+07 3.3472e+07  37.1%  21.6    6s
* 3062   537              32    5.316160e+07 4.3114e+07  18.9%  20.2    7s
* 3063   536              33    5.312320e+07 4.3114e+07  18.8%  20.2    7s
  4355   275 4.3859e+07   21   10 5.3123e+07 4.3717e+07  17.7%  22.1   10s

Cutting planes:
  Learned: 2
  Gomory: 11
  Cover: 95
  Implied bound: 111
  Clique: 5
  MIR: 21
  Flow cover: 65
  GUB cover: 27
  Zero half: 35

Explored 4950 nodes (107908 simplex iterations) in 10.45 seconds
Thread count was 2 (of 4 available processors)

Optimal solution found (tolerance 1.00e-04)
Best objective 5.312320000000e+07, best bound 5.312320000000e+07, gap 0.0%
k_c1	1000000.0
k_c10	930000.0000000001
k_c11	30000.00000000007
k_c12	980000.0000000001
k_c13	860000.0
k_c14	930000.0
k_c2	1000000.0
k_c3	960000.0
k_c4	930000.0
k_c5	50000.0
k_c6	1000000.0
k_c7	940000.0
k_c8	1000000.0
k_c9	1000000.0
k_dN	-0.0
o_1	-0.0
o_10	0.0
o_11	-0.0
o_12	0.0
o_13	-0.0
o_14	-0.0
o_2	-0.0
o_3	-0.0
o_4	0.0
o_5	-0.0
o_6	-0.0
o_7	-0.0
o_8	-0.0
o_9	-0.0
p_1	0.0
p_10	0.0
p_11	-0.0
p_12	0.0
p_13	0.0
p_14	0.0
p_2	0.0
p_3	0.0
p_4	0.0
p_5	0.0
p_6	0.0
p_7	0.0
p_8	0.0
p_9	0.0
phi_c1	53377.0
phi_c10	22271.0
phi_c11	13547.000000000015
phi_c12	31474.00000000001
phi_c13	24564.0
phi_c14	13547.000000000016
phi_c2	41984.0
phi_c3	42325.0
phi_c4	32191.0
phi_c5	8276.0
phi_c6	42867.0
phi_c7	32269.999999999956
phi_c8	39047.0
phi_c9	48492.999999999985
phi_d0	60000.0
phi_dN	-0.0
tauD_c1	600000.0
tauD_c10	650000.0
tauD_c11	879375.0
tauD_c12	500000.0000000001
tauD_c13	650000.0
tauD_c14	600000.0000000001
tauD_c2	250000.0
tauD_c3	656200.0000000001
tauD_c4	500000.0
tauD_c5	850000.0000000001
tauD_c6	200000.0
tauD_c7	813775.0000000001
tauD_c8	78300.0
tauD_c9	450000.0
tauD_d0	-0.0
tauD_dN	1000000.0
tauS_c1	895250.0
tauS_c10	836775.0
tauS_c11	869375.0
tauS_c12	813875.0
tauS_c13	884475.0
tauS_c14	124375.0
tauS_c2	852675.0
tauS_c3	65625.0
tauS_c4	866150.0
tauS_c5	889075.0
tauS_c6	855975.0000000001
tauS_c7	873300.0
tauS_c8	119975.0
tauS_c9	877000.0
tauS_d0	-0.0
tauS_dN	1000000.0
x_c10_dN	1.0
x_c11_dN	1.0
x_c12_c14	1.0
x_c13_dN	1.0
x_c14_dN	1.0
x_c1_c5	1.0
x_c2_c4	1.0
x_c3_c7	1.0
x_c4_c13	1.0
x_c5_dN	1.0
x_c6_c12	1.0
x_c7_c11	1.0
x_c8_c10	1.0
x_c9_c3	1.0
x_d0_c1	1.0
x_d0_c2	1.0
x_d0_c6	1.0
x_d0_c8	1.0
x_d0_c9	1.0
